param set_len = 22;
param target := 560726529;
set values := 131600299, 49500646, 44604090, 104783068, 5547536, 28415090, 54934687, 52222042, 98599542, 21298392, 55753358, 105604949, 25119914, 70002882, 23295137, 106701653, 26706452, 75896039, 40923083, 103035680, 103015454, 22390629, ;
